0
2
6
2
0
0
0
0
0
0
0
0
0
0
0
0
0
0
0
0
0
0
0
0
0
0
0
0
0
0
0
0
1000
1000
0
0
0
0
0
0
-2
-2
-2
-2
0
45
16
22
55
89
116
80
91
0
0
0
0
0
0
0
0
3
28
53
69
94
119
37
60
26
83
74
85
31
17
25
56
108
67
103
117
1145
2105
1094
1662
2282
3102
2151
2763
3784
4101
3706
4367
4772
5230
4502
5261
5509
6365
5865
6590
6664
7579
7039
7225
7934
8408
8209
8520
9038
9839
8891
9410
19
32
38
15
47
14
10
41
105
121
64
63
107
100
104
98
0
0
0
0
0
0
0
0
0
0
0
0
0
0
0
0
0
0
0
0
0
0
0
0
0
0
0
0
1
0
0
0
0
1208468041
1208477225
1208488435
1208488435
20394
11210
1180606
0
18890
6
19
40
40
0
0
0
0
0
2
0
0
13
2
0
0
0
13
2
0
0
0
0
0
0
0
0
0
1
0
0
5
2
0
0
0
0
0
0
0
0
0
0
0
0
0
0
0
0
